NAME: CMT12_2
TYPE: CVRP
COMMENT: 819.56 - Cluster Nr.2
DIMENSION: 18
CAPACITY: 200
EDGE_WEIGHT_TYPE: EUC_2D
NODE_COORD_TYPE: TWOD_COORDS
NODE_COORD_SECTION: 
17 28 30
14 33 32
3 32 30
2 35 32
1 45 30
10 26 32
12 33 35
7 25 30
13 45 35
15 30 30
11 40 50
5 35 30
9 30 35
16 30 32
6 48 30
8 28 35
4 25 35
18 47 35
DEPOT_SECTION: 
11
-1
DEMAND_SECTION: 
18 10
15 10
11 0
2 10
12 10
1 10
3 10
8 10
10 10
16 30
14 20
7 10
9 10
4 10
6 10
13 10
17 10
5 10
EOF
